WARNING: for repeatability, setting FPU to use double precision
============================[ Problem Statistics ]=============================
|                                                                             |
|  Number of variables:            50                                         |
|  Number of clauses:             218                                         |
|  Parse time:                   0.00 s                                       |
|                                                                             |
============================[ Search Statistics ]==============================
| Conflicts |          ORIGINAL         |          LEARNT          | Progress |
|           |    Vars  Clauses Literals |    Limit  Clauses Lit/Cl |          |
===============================================================================
===============================================================================
restarts              : 1
conflicts             : 16             (11577 /sec)
decisions             : 43             (0.00 % random) (31114 /sec)
propagations          : 250            (180897 /sec)
conflict literals     : 54             (6.90 % deleted)
Memory used           : 20.00 MB
CPU time              : 0.001382 s

SATISFIABLE
